\ LP format - for model browsing. Use MPS format to capture full model detail.
Minimize
  0 binVars[1] + 0 binVars[2] + 0 binVars[3] + 0 binVars[4] + 0 binVars[5]
   + 0 binVars[6] + 0 binVars[7] + 0 binVars[8] + 0 binVars[9]
   + 0 binVars[10] + 0 binVars[11] + 0 binVars[12] + 0 binVars[13]
   + 0 binVars[14] + 0 binVars[15] + 0 binVars[16] + 0 binVars[17]
   + 0 binVars[18] + 0 binVars[19] + 0 binVars[20] + 0 binVars[21]
   + 0 binVars[22] + 0 binVars[23] + 0 binVars[24] + 0 binVars[25]
   + 0 binVars[26] + 0 binVars[27] + 0 binVars[28] + 0 binVars[29]
   + 0 binVars[30] + 0 binVars[31] + 0 binVars[32] + 0 binVars[33]
   + 0 binVars[34] + 0 binVars[35] + 0 binVars[36] + 0 binVars[37]
   + 0 binVars[38] + 0 binVars[39] + 0 binVars[40] + 0 binVars[41]
   + 0 binVars[42] + 0 binVars[43] + 0 binVars[44] + 0 binVars[45]
   + 0 binVars[46] + 0 binVars[47] + 0 binVars[48] + 0 binVars[49]
   + 0 binVars[50] + 0 binVars[51] + 0 binVars[52] + 0 binVars[53]
   + 0 binVars[54] + 0 binVars[55] + 0 binVars[56] + 0 binVars[57]
   + 0 binVars[58] + 0 binVars[59] + 0 binVars[60] + 0 binVars[61]
   + 0 binVars[62] + 0 binVars[63] + 0 binVars[64] + 0 binVars[65]
   + 0 binVars[66] + 0 binVars[67] + 0 binVars[68] + 0 binVars[69]
   + 0 binVars[70] + 0 binVars[71] + 0 binVars[72] + 0 binVars[73]
   + 0 binVars[74] + 0 binVars[75] + 0 binVars[76] + 0 binVars[77]
   + 0 binVars[78] + 0 binVars[79] + 0 binVars[80] + 0 binVars[81]
   + 0 binVars[82] + 0 binVars[83] + 0 binVars[84] + 0 binVars[85]
   + 0 binVars[86] + 0 binVars[87] + 0 binVars[88] + 0 binVars[89]
   + 0 binVars[90] + 0 binVars[91] + 0 binVars[92] + 0 binVars[93]
   + 0 binVars[94] + 0 binVars[95] + 0 binVars[96] + 0 binVars[97]
   + 0 binVars[98] + 0 binVars[99] + 0 binVars[100] + 0 binVars[101]
   + 0 binVars[102] + 0 binVars[103] + 0 binVars[104] + 0 binVars[105]
   + 0 binVars[106] + 0 binVars[107] + 0 binVars[108] + 0 binVars[109]
   + 0 binVars[110] + 0 binVars[111] + 0 binVars[112] + 0 binVars[113]
   + 0 binVars[114] + 0 binVars[115] + 0 binVars[116] + 0 binVars[117]
   + 0 binVars[118] + 0 binVars[119] + 0 binVars[120] + 0 binVars[121]
   + 0 binVars[122] + 0 binVars[123] + 0 binVars[124] + 0 binVars[125]
   + 0 binVars[126] + 0 binVars[127] + 0 binVars[128] + 0 binVars[129]
   + 0 binVars[130] + 0 binVars[131] + 0 binVars[132] + 0 binVars[133]
   + 0 binVars[134] + 0 binVars[135] + 0 binVars[136] + 0 binVars[137]
   + 0 binVars[138] + 0 binVars[139] + 0 binVars[140] + 0 binVars[141]
   + 0 binVars[142] + 0 binVars[143] + 0 binVars[144] + 0 binVars[145]
   + 0 binVars[146] + 0 binVars[147] + 0 binVars[148] + 0 binVars[149]
   + 0 binVars[150] + 0 binVars[151] + 0 binVars[152] + 0 binVars[153]
   + 0 binVars[154] + 0 binVars[155] + 0 binVars[156] + 0 binVars[157]
   + 0 binVars[158] + 0 binVars[159] + 0 binVars[160] + 0 binVars[161]
   + 0 binVars[162] + 0 binVars[163] + 0 binVars[164] + 0 binVars[165]
   + 0 binVars[166] + 0 binVars[167] + 0 binVars[168] + 0 binVars[169]
   + 0 binVars[170] + 0 binVars[171] + 0 binVars[172] + 0 binVars[173]
   + 0 binVars[174] + 0 binVars[175] + 0 binVars[176] + 0 binVars[177]
   + 0 binVars[178] + 0 binVars[179] + 0 binVars[180] + 0 binVars[181]
   + 0 binVars[182] + 0 binVars[183] + 0 binVars[184] + 0 binVars[185]
   + 0 binVars[186] + 0 binVars[187] + 0 binVars[188] + 0 binVars[189]
   + 0 binVars[190] + 0 binVars[191] + 0 binVars[192] + 0 binVars[193]
   + 0 binVars[194] + 0 binVars[195] + 0 binVars[196] + 0 binVars[197]
   + 0 binVars[198] + 0 binVars[199] + 0 binVars[200] + 0 binVars[201]
   + 0 binVars[202] + 0 binVars[203] + 0 binVars[204] + 0 binVars[205]
   + 0 binVars[206] + 0 binVars[207] + 0 binVars[208] + 0 binVars[209]
   + 0 binVars[210] + 0 binVars[211] + 0 binVars[212] + 0 binVars[213]
   + 0 binVars[214] + 0 binVars[215] + 0 binVars[216] + 0 binVars[217]
   + 0 binVars[218] + 0 binVars[219] + 0 binVars[220] + 0 binVars[221]
   + 0 binVars[222] + 0 binVars[223] + 0 binVars[224] + 0 binVars[225]
   + 0 binVars[226] + 0 binVars[227] + 0 binVars[228] + 0 binVars[229]
   + 0 binVars[230] + 0 binVars[231] + 0 binVars[232] + 0 binVars[233]
   + 0 binVars[234] + 0 binVars[235] + 0 binVars[236] + 0 binVars[237]
   + 0 binVars[238] + 0 binVars[239] + 0 binVars[240] + 0 binVars[241]
   + 0 binVars[242] + 0 binVars[243] + 0 binVars[244] + 0 binVars[245]
   + 0 binVars[246] + 0 binVars[247] + 0 binVars[248] + 0 binVars[249]
   + 0 binVars[250] + 0 binVars[251] + 0 binVars[252] + 0 binVars[253]
   + 0 binVars[254] + 0 binVars[255] + 0 binVars[256] + 0 binVars[257]
   + 0 binVars[258] + 0 binVars[259] + 0 binVars[260] + 0 binVars[261]
   + 0 binVars[262] + 0 binVars[263] + 0 binVars[264] + 0 binVars[265]
   + 0 binVars[266] + 0 binVars[267] + 0 binVars[268] + 0 binVars[269]
   + 0 binVars[270] + 0 binVars[271] + 0 binVars[272] + 0 binVars[273]
   + 0 binVars[274] + 0 binVars[275] + 0 binVars[276] + 0 binVars[277]
   + 0 binVars[278] + 0 binVars[279] + 0 binVars[280] + 0 binVars[281]
   + 0 binVars[282] + 0 binVars[283] + 0 binVars[284] + 0 binVars[285]
   + 0 binVars[286] + 0 binVars[287] + 0 binVars[288] + 0 binVars[289]
   + 0 binVars[290] + 0 binVars[291] + 0 binVars[292] + 0 binVars[293]
   + 0 binVars[294] + 0 binVars[295] + 0 binVars[296] + 0 binVars[297]
   + 0 binVars[298] + 0 binVars[299] + 0 binVars[300] + 0 binVars[301]
   + 0 binVars[302] + 0 binVars[303] + 0 binVars[304] + 0 binVars[305]
   + 0 binVars[306] + 0 binVars[307] + 0 binVars[308] + 0 binVars[309]
   + 0 binVars[310] + 0 binVars[311] + 0 binVars[312] + 0 binVars[313]
   + 0 binVars[314] + 0 binVars[315] + 0 binVars[316] + 0 binVars[317]
   + 0 binVars[318] + 0 binVars[319] + 0 binVars[320] + 0 binVars[321]
   + 0 binVars[322] + 0 binVars[323] + 0 binVars[324] + 0 binVars[325]
   + 0 binVars[326] + 0 binVars[327] + 0 binVars[328] + 0 binVars[329]
   + 0 binVars[330] + 0 binVars[331] + 0 binVars[332] + 0 binVars[333]
   + 0 binVars[334] + 0 binVars[335] + 0 binVars[336] + 0 binVars[337]
   + 0 binVars[338] + 0 binVars[339] + 0 binVars[340] + 0 binVars[341]
   + 0 binVars[342] + 0 binVars[343] + 0 binVars[344] + 0 binVars[345]
   + 0 binVars[346] + 0 binVars[347] + 0 binVars[348] + 0 binVars[349]
   + 0 binVars[350] + 0 binVars[351] + 0 binVars[352] + 0 binVars[353]
   + 0 binVars[354] + 0 binVars[355] + 0 binVars[356] + 0 binVars[357]
   + 0 binVars[358] + 0 binVars[359] + 0 binVars[360] + 0 binVars[361]
   + 0 binVars[362] + 0 binVars[363] + 0 binVars[364] + 0 binVars[365]
   + 0 binVars[366] + 0 binVars[367] + 0 binVars[368] + 0 binVars[369]
   + 0 binVars[370] + 0 binVars[371] + 0 binVars[372] + 0 binVars[373]
   + 0 binVars[374] + 0 binVars[375] + 0 binVars[376] + 0 binVars[377]
   + 0 binVars[378] + 0 binVars[379] + 0 binVars[380] + 0 binVars[381]
   + 0 binVars[382] + 0 binVars[383] + 0 binVars[384] + 0 binVars[385]
   + 0 binVars[386] + 0 binVars[387] + 0 binVars[388] + 0 binVars[389]
   + 0 binVars[390] + 0 binVars[391] + 0 binVars[392] + 0 binVars[393]
   + 0 binVars[394] + 0 binVars[395] + 0 binVars[396] + 0 binVars[397]
   + 0 binVars[398] + 0 binVars[399] + 0 binVars[400] + 0 binVars[401]
   + 0 binVars[402] + 0 binVars[403] + 0 binVars[404] + 0 binVars[405]
   + 0 binVars[406] + 0 binVars[407] + 0 binVars[408] + 0 binVars[409]
   + 0 binVars[410] + 0 binVars[411] + 0 binVars[412] + 0 binVars[413]
   + 0 binVars[414] + 0 binVars[415] + 0 binVars[416] + 0 binVars[417]
   + 0 binVars[418] + 0 binVars[419] + 0 binVars[420] + 0 binVars[421]
   + 0 binVars[422] + 0 binVars[423] + 0 binVars[424] + 0 binVars[425]
   + 0 binVars[426] + 0 binVars[427] + 0 binVars[428] + 0 binVars[429]
   + 0 binVars[430] + 0 binVars[431] + 0 binVars[432] + 0 binVars[433]
   + 0 binVars[434] + 0 binVars[435] + 0 binVars[436] + 0 binVars[437]
   + 0 binVars[438] + 0 binVars[439] + 0 binVars[440] + 0 binVars[441]
   + 0 binVars[442] + 0 binVars[443] + 0 binVars[444] + 0 binVars[445]
   + 0 binVars[446] + 0 binVars[447] + 0 binVars[448] + 0 binVars[449]
   + 0 binVars[450] + 0 binVars[451] + 0 binVars[452] + 0 binVars[453]
   + 0 binVars[454] + 0 binVars[455] + 0 binVars[456] + 0 binVars[457]
   + 0 binVars[458] + 0 binVars[459] + 0 binVars[460] + 0 binVars[461]
   + 0 binVars[462] + 0 binVars[463] + 0 binVars[464] + 0 binVars[465]
   + 0 binVars[466] + 0 binVars[467] + 0 binVars[468] + 0 binVars[469]
   + 0 binVars[470] + 0 binVars[471] + 0 binVars[472] + 0 binVars[473]
   + 0 binVars[474] + 0 binVars[475] + 0 binVars[476] + 0 binVars[477]
   + 0 binVars[478] + 0 binVars[479] + 0 binVars[480] + 0 binVars[481]
   + 0 binVars[482] + 0 binVars[483] + 0 binVars[484] + 0 binVars[485]
   + 0 binVars[486] + 0 binVars[487] + 0 binVars[488] + 0 binVars[489]
   + 0 binVars[490] + 0 binVars[491] + 0 binVars[492] + 0 binVars[493]
   + 0 binVars[494] + 0 binVars[495] + 0 binVars[496] + 0 binVars[497]
   + 0 binVars[498] + 0 binVars[499] + 0 binVars[500] + 0 binVars[501]
   + 0 binVars[502] + 0 binVars[503] + 0 binVars[504] + 0 binVars[505]
   + 0 binVars[506] + 0 binVars[507] + 0 binVars[508] + 0 binVars[509]
   + 0 binVars[510] + 0 binVars[511] + 0 binVars[512] + 0 binVars[513]
   + 0 binVars[514] + 0 binVars[515] + 0 binVars[516] + 0 binVars[517]
   + 0 binVars[518] + 0 binVars[519] + 0 binVars[520] + 0 binVars[521]
   + 0 binVars[522] + 0 binVars[523] + 0 binVars[524] + 0 binVars[525]
   + 0 binVars[526] + 0 binVars[527] + 0 binVars[528] + 0 binVars[529]
   + 0 binVars[530] + 0 binVars[531] + 0 binVars[532] + 0 binVars[533]
   + 0 binVars[534] + 0 binVars[535] + 0 binVars[536] + 0 binVars[537]
   + 0 binVars[538] + 0 binVars[539] + 0 binVars[540] + 0 binVars[541]
   + 0 binVars[542] + 0 binVars[543] + 0 binVars[544] + 0 binVars[545]
   + 0 binVars[546] + 0 binVars[547] + 0 binVars[548] + 0 binVars[549]
   + 0 binVars[550] + 0 binVars[551] + 0 binVars[552] + 0 binVars[553]
   + 0 binVars[554] + 0 binVars[555] + 0 binVars[556] + 0 binVars[557]
   + 0 binVars[558] + 0 binVars[559] + 0 binVars[560] + 0 binVars[561]
   + 0 binVars[562] + 0 binVars[563] + 0 binVars[564] + 0 binVars[565]
   + 0 binVars[566] + 0 binVars[567] + 0 binVars[568] + 0 binVars[569]
   + 0 binVars[570] + 0 binVars[571] + 0 binVars[572] + 0 binVars[573]
   + 0 binVars[574] + 0 binVars[575] + 0 binVars[576] + 0 binVars[577]
   + 0 binVars[578] + 0 binVars[579] + 0 binVars[580] + 0 binVars[581]
   + 0 binVars[582] + 0 binVars[583] + 0 binVars[584] + 0 binVars[585]
   + 0 binVars[586] + 0 binVars[587] + 0 binVars[588] + 0 binVars[589]
   + 0 binVars[590] + 0 binVars[591] + 0 binVars[592] + 0 binVars[593]
   + 0 binVars[594] + 0 binVars[595] + 0 binVars[596] + 0 binVars[597]
   + 0 binVars[598] + 0 binVars[599] + 0 binVars[600] + 0 binVars[601]
   + 0 binVars[602] + 0 binVars[603] + 0 binVars[604] + 0 binVars[605]
   + 0 binVars[606] + 0 binVars[607] + 0 binVars[608] + 0 binVars[609]
   + 0 binVars[610] + 0 binVars[611] + 0 binVars[612] + 0 binVars[613]
   + 0 binVars[614] + 0 binVars[615] + 0 binVars[616] + 0 binVars[617]
   + 0 binVars[618] + 0 binVars[619] + 0 binVars[620] + 0 binVars[621]
   + 0 binVars[622] + 0 binVars[623] + 0 binVars[624] + 0 binVars[625]
   + 0 binVars[626] + 0 binVars[627] + 0 binVars[628] + 0 binVars[629]
   + 0 binVars[630] + 0 binVars[631]
Subject To
 R0: <= -1
 improvementConstraint_0: - 100000 binVars[0] >= -100000.2518072289
Bounds
Binaries
 binVars[0] binVars[1] binVars[2] binVars[3] binVars[4] binVars[5]
 binVars[6] binVars[7] binVars[8] binVars[9] binVars[10] binVars[11]
 binVars[12] binVars[13] binVars[14] binVars[15] binVars[16] binVars[17]
 binVars[18] binVars[19] binVars[20] binVars[21] binVars[22] binVars[23]
 binVars[24] binVars[25] binVars[26] binVars[27] binVars[28] binVars[29]
 binVars[30] binVars[31] binVars[32] binVars[33] binVars[34] binVars[35]
 binVars[36] binVars[37] binVars[38] binVars[39] binVars[40] binVars[41]
 binVars[42] binVars[43] binVars[44] binVars[45] binVars[46] binVars[47]
 binVars[48] binVars[49] binVars[50] binVars[51] binVars[52] binVars[53]
 binVars[54] binVars[55] binVars[56] binVars[57] binVars[58] binVars[59]
 binVars[60] binVars[61] binVars[62] binVars[63] binVars[64] binVars[65]
 binVars[66] binVars[67] binVars[68] binVars[69] binVars[70] binVars[71]
 binVars[72] binVars[73] binVars[74] binVars[75] binVars[76] binVars[77]
 binVars[78] binVars[79] binVars[80] binVars[81] binVars[82] binVars[83]
 binVars[84] binVars[85] binVars[86] binVars[87] binVars[88] binVars[89]
 binVars[90] binVars[91] binVars[92] binVars[93] binVars[94] binVars[95]
 binVars[96] binVars[97] binVars[98] binVars[99] binVars[100] binVars[101]
 binVars[102] binVars[103] binVars[104] binVars[105] binVars[106]
 binVars[107] binVars[108] binVars[109] binVars[110] binVars[111]
 binVars[112] binVars[113] binVars[114] binVars[115] binVars[116]
 binVars[117] binVars[118] binVars[119] binVars[120] binVars[121]
 binVars[122] binVars[123] binVars[124] binVars[125] binVars[126]
 binVars[127] binVars[128] binVars[129] binVars[130] binVars[131]
 binVars[132] binVars[133] binVars[134] binVars[135] binVars[136]
 binVars[137] binVars[138] binVars[139] binVars[140] binVars[141]
 binVars[142] binVars[143] binVars[144] binVars[145] binVars[146]
 binVars[147] binVars[148] binVars[149] binVars[150] binVars[151]
 binVars[152] binVars[153] binVars[154] binVars[155] binVars[156]
 binVars[157] binVars[158] binVars[159] binVars[160] binVars[161]
 binVars[162] binVars[163] binVars[164] binVars[165] binVars[166]
 binVars[167] binVars[168] binVars[169] binVars[170] binVars[171]
 binVars[172] binVars[173] binVars[174] binVars[175] binVars[176]
 binVars[177] binVars[178] binVars[179] binVars[180] binVars[181]
 binVars[182] binVars[183] binVars[184] binVars[185] binVars[186]
 binVars[187] binVars[188] binVars[189] binVars[190] binVars[191]
 binVars[192] binVars[193] binVars[194] binVars[195] binVars[196]
 binVars[197] binVars[198] binVars[199] binVars[200] binVars[201]
 binVars[202] binVars[203] binVars[204] binVars[205] binVars[206]
 binVars[207] binVars[208] binVars[209] binVars[210] binVars[211]
 binVars[212] binVars[213] binVars[214] binVars[215] binVars[216]
 binVars[217] binVars[218] binVars[219] binVars[220] binVars[221]
 binVars[222] binVars[223] binVars[224] binVars[225] binVars[226]
 binVars[227] binVars[228] binVars[229] binVars[230] binVars[231]
 binVars[232] binVars[233] binVars[234] binVars[235] binVars[236]
 binVars[237] binVars[238] binVars[239] binVars[240] binVars[241]
 binVars[242] binVars[243] binVars[244] binVars[245] binVars[246]
 binVars[247] binVars[248] binVars[249] binVars[250] binVars[251]
 binVars[252] binVars[253] binVars[254] binVars[255] binVars[256]
 binVars[257] binVars[258] binVars[259] binVars[260] binVars[261]
 binVars[262] binVars[263] binVars[264] binVars[265] binVars[266]
 binVars[267] binVars[268] binVars[269] binVars[270] binVars[271]
 binVars[272] binVars[273] binVars[274] binVars[275] binVars[276]
 binVars[277] binVars[278] binVars[279] binVars[280] binVars[281]
 binVars[282] binVars[283] binVars[284] binVars[285] binVars[286]
 binVars[287] binVars[288] binVars[289] binVars[290] binVars[291]
 binVars[292] binVars[293] binVars[294] binVars[295] binVars[296]
 binVars[297] binVars[298] binVars[299] binVars[300] binVars[301]
 binVars[302] binVars[303] binVars[304] binVars[305] binVars[306]
 binVars[307] binVars[308] binVars[309] binVars[310] binVars[311]
 binVars[312] binVars[313] binVars[314] binVars[315] binVars[316]
 binVars[317] binVars[318] binVars[319] binVars[320] binVars[321]
 binVars[322] binVars[323] binVars[324] binVars[325] binVars[326]
 binVars[327] binVars[328] binVars[329] binVars[330] binVars[331]
 binVars[332] binVars[333] binVars[334] binVars[335] binVars[336]
 binVars[337] binVars[338] binVars[339] binVars[340] binVars[341]
 binVars[342] binVars[343] binVars[344] binVars[345] binVars[346]
 binVars[347] binVars[348] binVars[349] binVars[350] binVars[351]
 binVars[352] binVars[353] binVars[354] binVars[355] binVars[356]
 binVars[357] binVars[358] binVars[359] binVars[360] binVars[361]
 binVars[362] binVars[363] binVars[364] binVars[365] binVars[366]
 binVars[367] binVars[368] binVars[369] binVars[370] binVars[371]
 binVars[372] binVars[373] binVars[374] binVars[375] binVars[376]
 binVars[377] binVars[378] binVars[379] binVars[380] binVars[381]
 binVars[382] binVars[383] binVars[384] binVars[385] binVars[386]
 binVars[387] binVars[388] binVars[389] binVars[390] binVars[391]
 binVars[392] binVars[393] binVars[394] binVars[395] binVars[396]
 binVars[397] binVars[398] binVars[399] binVars[400] binVars[401]
 binVars[402] binVars[403] binVars[404] binVars[405] binVars[406]
 binVars[407] binVars[408] binVars[409] binVars[410] binVars[411]
 binVars[412] binVars[413] binVars[414] binVars[415] binVars[416]
 binVars[417] binVars[418] binVars[419] binVars[420] binVars[421]
 binVars[422] binVars[423] binVars[424] binVars[425] binVars[426]
 binVars[427] binVars[428] binVars[429] binVars[430] binVars[431]
 binVars[432] binVars[433] binVars[434] binVars[435] binVars[436]
 binVars[437] binVars[438] binVars[439] binVars[440] binVars[441]
 binVars[442] binVars[443] binVars[444] binVars[445] binVars[446]
 binVars[447] binVars[448] binVars[449] binVars[450] binVars[451]
 binVars[452] binVars[453] binVars[454] binVars[455] binVars[456]
 binVars[457] binVars[458] binVars[459] binVars[460] binVars[461]
 binVars[462] binVars[463] binVars[464] binVars[465] binVars[466]
 binVars[467] binVars[468] binVars[469] binVars[470] binVars[471]
 binVars[472] binVars[473] binVars[474] binVars[475] binVars[476]
 binVars[477] binVars[478] binVars[479] binVars[480] binVars[481]
 binVars[482] binVars[483] binVars[484] binVars[485] binVars[486]
 binVars[487] binVars[488] binVars[489] binVars[490] binVars[491]
 binVars[492] binVars[493] binVars[494] binVars[495] binVars[496]
 binVars[497] binVars[498] binVars[499] binVars[500] binVars[501]
 binVars[502] binVars[503] binVars[504] binVars[505] binVars[506]
 binVars[507] binVars[508] binVars[509] binVars[510] binVars[511]
 binVars[512] binVars[513] binVars[514] binVars[515] binVars[516]
 binVars[517] binVars[518] binVars[519] binVars[520] binVars[521]
 binVars[522] binVars[523] binVars[524] binVars[525] binVars[526]
 binVars[527] binVars[528] binVars[529] binVars[530] binVars[531]
 binVars[532] binVars[533] binVars[534] binVars[535] binVars[536]
 binVars[537] binVars[538] binVars[539] binVars[540] binVars[541]
 binVars[542] binVars[543] binVars[544] binVars[545] binVars[546]
 binVars[547] binVars[548] binVars[549] binVars[550] binVars[551]
 binVars[552] binVars[553] binVars[554] binVars[555] binVars[556]
 binVars[557] binVars[558] binVars[559] binVars[560] binVars[561]
 binVars[562] binVars[563] binVars[564] binVars[565] binVars[566]
 binVars[567] binVars[568] binVars[569] binVars[570] binVars[571]
 binVars[572] binVars[573] binVars[574] binVars[575] binVars[576]
 binVars[577] binVars[578] binVars[579] binVars[580] binVars[581]
 binVars[582] binVars[583] binVars[584] binVars[585] binVars[586]
 binVars[587] binVars[588] binVars[589] binVars[590] binVars[591]
 binVars[592] binVars[593] binVars[594] binVars[595] binVars[596]
 binVars[597] binVars[598] binVars[599] binVars[600] binVars[601]
 binVars[602] binVars[603] binVars[604] binVars[605] binVars[606]
 binVars[607] binVars[608] binVars[609] binVars[610] binVars[611]
 binVars[612] binVars[613] binVars[614] binVars[615] binVars[616]
 binVars[617] binVars[618] binVars[619] binVars[620] binVars[621]
 binVars[622] binVars[623] binVars[624] binVars[625] binVars[626]
 binVars[627] binVars[628] binVars[629] binVars[630] binVars[631]
End
